759
1   1   72   138  0 30 48 47 36 37 5 4 0
1   2   39   99   0 75 6 51 26 67 0
1   3   0    0    0 0
2   1   96   137  0 69 71 60 70 20 15 57 54 13 27 29 0
2   2   127  137  0 45 12 39 55 25 40 17 68 0
2   3   0    0    0 0
3   1   34   55   0 59 14 0
3   2   42   129  0 53 11 66 65 38 0
3   3   47   121  0 19 8 52 34 46 7 35 0
4   1   76   132  0 16 33 63 23 56 49 24 3 0
4   2   95   137  0 72 58 10 31 9 50 18 0
4   3   18   45   0 44 32 0
5   1   45   102  0 1 22 64 42 41 43 0
5   2   68   132  0 62 28 61 21 74 2 73 0
5   3   0    0    0 0